c CNF file corresponding to a (partial) station packing problem.
p cnf 6700 229
6684 6685 6686 6687 6688 6689 6690 6691 6692 6693 6694 6695 6696 6697 6698 6699 6700 0
-6684 -6685 0
-6684 -6686 0
-6684 -6687 0
-6684 -6688 0
-6684 -6689 0
-6684 -6690 0
-6684 -6691 0
-6684 -6692 0
-6684 -6693 0
-6684 -6694 0
-6684 -6695 0
-6684 -6696 0
-6684 -6697 0
-6684 -6698 0
-6684 -6699 0
-6684 -6700 0
-6685 -6686 0
-6685 -6687 0
-6685 -6688 0
-6685 -6689 0
-6685 -6690 0
-6685 -6691 0
-6685 -6692 0
-6685 -6693 0
-6685 -6694 0
-6685 -6695 0
-6685 -6696 0
-6685 -6697 0
-6685 -6698 0
-6685 -6699 0
-6685 -6700 0
-6686 -6687 0
-6686 -6688 0
-6686 -6689 0
-6686 -6690 0
-6686 -6691 0
-6686 -6692 0
-6686 -6693 0
-6686 -6694 0
-6686 -6695 0
-6686 -6696 0
-6686 -6697 0
-6686 -6698 0
-6686 -6699 0
-6686 -6700 0
-6687 -6688 0
-6687 -6689 0
-6687 -6690 0
-6687 -6691 0
-6687 -6692 0
-6687 -6693 0
-6687 -6694 0
-6687 -6695 0
-6687 -6696 0
-6687 -6697 0
-6687 -6698 0
-6687 -6699 0
-6687 -6700 0
-6688 -6689 0
-6688 -6690 0
-6688 -6691 0
-6688 -6692 0
-6688 -6693 0
-6688 -6694 0
-6688 -6695 0
-6688 -6696 0
-6688 -6697 0
-6688 -6698 0
-6688 -6699 0
-6688 -6700 0
-6689 -6690 0
-6689 -6691 0
-6689 -6692 0
-6689 -6693 0
-6689 -6694 0
-6689 -6695 0
-6689 -6696 0
-6689 -6697 0
-6689 -6698 0
-6689 -6699 0
-6689 -6700 0
-6690 -6691 0
-6690 -6692 0
-6690 -6693 0
-6690 -6694 0
-6690 -6695 0
-6690 -6696 0
-6690 -6697 0
-6690 -6698 0
-6690 -6699 0
-6690 -6700 0
-6691 -6692 0
-6691 -6693 0
-6691 -6694 0
-6691 -6695 0
-6691 -6696 0
-6691 -6697 0
-6691 -6698 0
-6691 -6699 0
-6691 -6700 0
-6692 -6693 0
-6692 -6694 0
-6692 -6695 0
-6692 -6696 0
-6692 -6697 0
-6692 -6698 0
-6692 -6699 0
-6692 -6700 0
-6693 -6694 0
-6693 -6695 0
-6693 -6696 0
-6693 -6697 0
-6693 -6698 0
-6693 -6699 0
-6693 -6700 0
-6694 -6695 0
-6694 -6696 0
-6694 -6697 0
-6694 -6698 0
-6694 -6699 0
-6694 -6700 0
-6695 -6696 0
-6695 -6697 0
-6695 -6698 0
-6695 -6699 0
-6695 -6700 0
-6696 -6697 0
-6696 -6698 0
-6696 -6699 0
-6696 -6700 0
-6697 -6698 0
-6697 -6699 0
-6697 -6700 0
-6698 -6699 0
-6698 -6700 0
-6699 -6700 0
1 2 3 4 5 6 7 8 9 10 11 12 13 14 0
-1 -2 0
-1 -3 0
-1 -4 0
-1 -5 0
-1 -6 0
-1 -7 0
-1 -8 0
-1 -9 0
-1 -10 0
-1 -11 0
-1 -12 0
-1 -13 0
-1 -14 0
-2 -3 0
-2 -4 0
-2 -5 0
-2 -6 0
-2 -7 0
-2 -8 0
-2 -9 0
-2 -10 0
-2 -11 0
-2 -12 0
-2 -13 0
-2 -14 0
-3 -4 0
-3 -5 0
-3 -6 0
-3 -7 0
-3 -8 0
-3 -9 0
-3 -10 0
-3 -11 0
-3 -12 0
-3 -13 0
-3 -14 0
-4 -5 0
-4 -6 0
-4 -7 0
-4 -8 0
-4 -9 0
-4 -10 0
-4 -11 0
-4 -12 0
-4 -13 0
-4 -14 0
-5 -6 0
-5 -7 0
-5 -8 0
-5 -9 0
-5 -10 0
-5 -11 0
-5 -12 0
-5 -13 0
-5 -14 0
-6 -7 0
-6 -8 0
-6 -9 0
-6 -10 0
-6 -11 0
-6 -12 0
-6 -13 0
-6 -14 0
-7 -8 0
-7 -9 0
-7 -10 0
-7 -11 0
-7 -12 0
-7 -13 0
-7 -14 0
-8 -9 0
-8 -10 0
-8 -11 0
-8 -12 0
-8 -13 0
-8 -14 0
-9 -10 0
-9 -11 0
-9 -12 0
-9 -13 0
-9 -14 0
-10 -11 0
-10 -12 0
-10 -13 0
-10 -14 0
-11 -12 0
-11 -13 0
-11 -14 0
-12 -13 0
-12 -14 0
-13 -14 0
